StudentsNr = 15;
InstructorsNr = 10;
DaysNr = 2;
SlotsPerDay = 10;
RoomNr = 2;
ProgrammNr = 2;
DegreeNr = 1;
RolesNr = 2;
CoursesNr = 3;
InstructorsProgramm = [{1, 2}, {1, 2}, {2}, {1}, {1}, {1, 2}, {1}, {2}, {2}, {2}];
InstructorsRoles = [{2}, {}, {}, {1, 2}, {2}, {2}, {1, 2}, {1, 2}, {2}, {1, 2}];
InstructorsAvailability = [|1, 1, 1, 1, 0, 1, 0, 1, 1, 1, |0, 0, 1, 1, 1, 1, 1, 1, 1, 1, |0, 1, 1, 1, 1, 1, 1, 1, 1, 0, |1, 1, 1, 1, 1, 1, 1, 1, 1, 1, |0, 1, 1, 1, 1, 1, 1, 1, 1, 0, |1, 1, 1, 1, 1, 0, 1, 1, 1, 1, |1, 1, 1, 1, 1, 0, 1, 1, 1, 1, |1, 1, 1, 0, 0, 1, 1, 1, 1, 1, |0, 1, 1, 1, 1, 1, 0, 1, 0, 1, |0, 0, 0, 1, 1, 1, 1, 1, 1, 1|];
StudentsProgramm = [1, 2, 2, 1, 2, 1, 1, 1, 2, 1, 1, 1, 2, 1, 1];
StudentsDegree = [1, 1, 1, 1, 1, 1, 1, 1, 1, 1, 1, 1, 1, 1, 1];
StudentsSupervisorId = [6, 8, 10, 5, 9, 5, 2, 5, 2, 7, 5, 7, 6, 7, 6];
StudentsCourseIds = [{1, 2}, {1, 2}, {2, 3}, {2, 3}, {1, 2}, {1, 2}, {1, 3}, {2, 3}, {2, 3}, {1, 2}, {1, 2}, {1, 2}, {2, 3}, {1, 2}, {1, 3}];
StudentsAvailability = [|1, 1, 1, 0, 0, 1, 0, 1, 1, 1, |0, 0, 1, 1, 1, 1, 1, 1, 1, 1, |0, 0, 1, 1, 1, 0, 1, 1, 1, 1, |1, 1, 1, 1, 1, 1, 1, 1, 1, 1, |0, 1, 1, 1, 1, 1, 1, 1, 1, 1, |0, 1, 1, 1, 1, 1, 1, 0, 1, 1, |0, 1, 1, 1, 1, 1, 1, 1, 1, 1, |1, 1, 1, 1, 1, 0, 0, 0, 0, 1, |0, 0, 1, 1, 1, 1, 1, 0, 0, 1, |1, 1, 1, 1, 1, 1, 1, 1, 1, 1, |0, 0, 1, 1, 1, 1, 1, 1, 1, 1, |1, 1, 1, 1, 1, 1, 1, 1, 1, 1, |0, 1, 1, 1, 1, 1, 1, 1, 1, 1, |0, 0, 1, 1, 1, 1, 1, 1, 1, 1, |0, 1, 1, 1, 1, 0, 1, 1, 1, 1|];
CoursesInstructorIds = [{4, 5, 6, 7, 9}, {4, 6, 9}, {3, 10}];
